NAME : amz2118.123194_123194.tour
COMMENT : Cost = 123194_123194
COMMENT : Found by LKH-AMZ [Keld Helsgaun] Sun May 11 13:42:26 2025
COMMENT : TW viol.: 0 #: 0
TYPE : TOUR
DIMENSION : 178
TOUR_SECTION
88
174
72
85
141
87
20
175
29
58
44
24
31
143
129
51
75
60
102
149
40
34
76
150
165
62
95
123
154
7
160
155
77
108
74
11
80
71
152
112
56
2
126
83
140
176
110
10
158
1
170
5
17
111
89
18
118
147
128
117
53
30
136
134
153
91
50
163
54
173
25
96
48
168
26
22
67
39
43
94
65
116
93
145
162
161
69
164
63
99
13
113
78
70
98
19
142
120
131
27
61
45
127
101
14
159
135
6
68
35
55
4
32
49
41
57
38
23
166
172
109
15
90
16
9
33
28
66
59
64
21
103
157
12
8
146
151
119
169
121
144
137
52
171
132
36
81
100
46
105
177
115
79
106
125
178
92
167
47
104
82
37
124
133
42
107
97
3
148
86
122
138
156
130
139
73
84
114
-1
EOF
